SDVRPTW/PR05.vrp
NAME: PR05
COMMENT: Based on Cordeau and Laporte (2001).
TYPE: SDVRPTW
EDGE_WEIGHT_TYPE: EUC_2D
DIMENSION: 241
VEHICLES: 24
NODE_COORD_SECTION
1	-3.638	16.114
2	-34.686	24.048
3	9.717	-10.956
4	54.742	-41.296
5	51.898	89.935
6	-0.006	24.42
7	7.379	-12.677
8	-56.36	19.299
9	0.604	24.774
10	44.183	55.829
11	-24.292	27.118
12	2.789	54.303
13	57.104	66.65
14	-51.465	30.646
15	47.546	-20.782
16	6.696	32.458
17	41.144	18.518
18	-62.811	59.491
19	20.728	-37.5
20	-59.039	38.422
21	36.731	-50.226
22	-62.03	33.521
23	46.21	17.157
24	27.307	21.722
25	6.403	-18.994
26	20.776	-15.387
27	-53.625	34.863
28	-12.903	37.512
29	-13.123	2.655
30	24.396	51.978
31	78.394	64.496
32	-11.444	69.794
33	-33.502	7.501
34	33.228	-22.797
35	-5.127	-26.282
36	0.305	-79.218
37	24.768	-88.69
38	5.243	-67.346
39	-19.44	50.104
40	19.061	-29.48
41	-10.083	36.786
42	57.715	71.362
43	-47.406	63.544
44	15.79	-17.041
45	70.361	27.753
46	-2.551	51.666
47	-68.878	4.053
48	-19.385	12.677
49	41.693	-93.585
50	28.082	-18.262
51	28.845	-16.473
52	-52.032	26.703
53	-27.356	38.708
54	-34.302	25.995
55	-41.425	78.906
56	24.786	-35.925
57	-22.522	18.536
58	-7.55	23.572
59	-45.129	30.438
60	-33.136	30.731
61	-31.482	9.351
62	9.686	7.294
63	43.884	-23.669
64	49.188	59.29
65	-39.551	-10.968
66	-96.521	45.508
67	-59.076	41.669
68	-68.811	4.315
69	10.51	19.092
70	40.82	65.723
71	28.833	-57.672
72	29.303	-49.371
73	-6.238	-52.02
74	-75.037	46.448
75	-57.495	13.574
76	-15.704	13.94
77	36.322	71.411
78	39.429	30.835
79	-93.097	84.552
80	45.367	-8.905
81	96.985	-19.165
82	-53.088	53.79
83	-23.102	61.108
84	28.4	-35.272
85	-31.11	-51.361
86	82.385	46.893
87	-19.629	0.769
88	13.965	91.473
89	-87.347	5.078
90	-27.386	-58.612
91	-39.404	54.022
92	7.391	-32.019
93	54.401	29.81
94	28.65	63.91
95	1.117	-56.006
96	14.471	14.288
97	-17.572	-79.858
98	-20.978	-34.015
99	81.104	94.263
100	1.19	56.055
101	21.112	-47.125
102	75.848	86.322
103	7.88	-5.75
104	-69.318	28.619
105	10.931	-29.095
106	-22.272	-1.086
107	32.77	29.266
108	11.786	15.375
109	10.645	6.067
110	3.345	17.041
111	5.615	-87.604
112	20.49	-30.389
113	2.661	66.876
114	14.752	22.925
115	25.201	-47.119
116	-16.949	67.664
117	-28.986	28.894
118	35.413	-48.401
119	-29.62	72.046
120	-31.281	-15.088
121	-46.46	48.151
122	56.378	-25.14
123	30.255	-25.458
124	-54.669	25.677
125	-61.542	35.144
126	32.532	-18.872
127	-92.487	-22.693
128	70.404	-72.443
129	8.783	-69.36
130	26.794	57.44
131	6.421	62.018
132	-99.67	11.475
133	-44.159	41.98
134	-55.664	39.05
135	-43.549	30.188
136	38.019	-18.427
137	31.653	63.483
138	26.068	-10.266
139	-73.022	25.958
140	-41.949	22.791
141	6.207	44.769
142	25.104	78.876
143	34.998	16.058
144	-43.262	8.588
145	-12.598	48.462
146	-15.387	67.053
147	-8.099	40.924
148	-33.551	34.43
149	28.937	-22.119
150	78.638	-8.209
151	51.001	45.77
152	49.2	20.63
153	-41.656	51.086
154	19.69	-28.058
155	56.927	15.271
156	28.503	-6.47
157	-1.367	-9.375
158	-81.995	-2.673
159	-24.945	-41.241
160	-86.847	69.415
161	46.558	15.57
162	-85.394	44.781
163	-7.013	53.424
164	-26.52	62.097
165	-81.604	30.64
166	82.147	44.208
167	17.316	-35.895
168	48.181	22.577
169	-31.11	16.931
170	-43.066	16.962
171	-11.42	-25.311
172	29.364	-51.721
173	55.597	-65.259
174	29.919	-46.252
175	17.883	-68.549
176	-89.935	64.575
177	7.159	-28.467
178	-0.745	-38.892
179	73.029	-66.461
180	11.572	-44.574
181	15.71	34.839
182	29.022	-40.002
183	67.542	32.446
184	5.292	-51.556
185	-74.139	9.161
186	-51.196	40.833
187	-67.139	19.141
188	-30.927	-11.401
189	-44.891	-23.718
190	-79.999	60.114
191	-44.556	19.623
192	27.057	8.679
193	-61.267	59.912
194	-56.812	45.544
195	19.965	-44.22
196	-69.049	62.891
197	-7.928	97.266
198	20.404	44.513
199	42.505	-14.215
200	33.752	32.294
201	17.975	32.782
202	52.118	21.033
203	-26.489	43.903
204	37.103	53.345
205	72.357	62.03
206	-53.674	48.523
207	-97.9	67.92
208	-69.232	35.602
209	-27.686	-26.093
210	16.37	-15.546
211	42.493	-51.324
212	-54.779	35.907
213	-12.848	51.459
214	57.916	18.445
215	43.469	-98.682
216	10.449	-42.487
217	-8.252	37.714
218	68.695	-30.06
219	31.604	-53.21
220	-49.097	5.194
221	-1.782	-45.105
222	27.814	-24.841
223	-1.111	8.301
224	16.614	-30.084
225	-54.858	56.482
226	-65.692	41.821
227	-73.962	74.353
228	-10.944	82.013
229	13.953	-25.842
230	-88.318	31.061
231	-48.724	50.22
232	-21.863	75.83
233	-19.391	-40.826
234	-21.112	42.914
235	46.967	34.076
236	55.475	40.869
237	25.33	47.449
238	54.816	-6.958
239	33.441	-40.125
240	9.705	-35.016
241	1.617	-72.998
DEMAND_SECTION
1	0
2	24
3	18
4	15
5	18
6	7
7	1
8	17
9	7
10	5
11	16
12	8
13	8
14	21
15	9
16	18
17	6
18	23
19	9
20	14
21	5
22	22
23	11
24	21
25	19
26	15
27	13
28	4
29	19
30	24
31	19
32	7
33	17
34	18
35	24
36	2
37	25
38	8
39	21
40	7
41	5
42	14
43	15
44	2
45	5
46	1
47	3
48	23
49	10
50	23
51	12
52	10
53	6
54	4
55	25
56	19
57	8
58	21
59	1
60	11
61	4
62	23
63	12
64	6
65	17
66	21
67	20
68	24
69	25
70	21
71	25
72	7
73	14
74	17
75	3
76	3
77	9
78	16
79	21
80	11
81	12
82	4
83	8
84	13
85	6
86	10
87	4
88	23
89	13
90	22
91	12
92	19
93	22
94	22
95	24
96	10
97	19
98	9
99	16
100	23
101	19
102	14
103	6
104	25
105	20
106	1
107	14
108	22
109	1
110	20
111	13
112	16
113	24
114	9
115	25
116	18
117	6
118	22
119	22
120	2
121	8
122	15
123	20
124	19
125	7
126	22
127	7
128	15
129	19
130	4
131	10
132	14
133	4
134	25
135	12
136	24
137	3
138	18
139	25
140	19
141	3
142	18
143	9
144	20
145	23
146	13
147	6
148	13
149	12
150	24
151	14
152	18
153	16
154	9
155	6
156	4
157	4
158	16
159	22
160	1
161	2
162	18
163	22
164	3
165	3
166	24
167	14
168	22
169	11
170	14
171	13
172	12
173	10
174	12
175	22
176	10
177	6
178	4
179	11
180	14
181	20
182	5
183	4
184	14
185	21
186	21
187	23
188	2
189	13
190	18
191	16
192	10
193	25
194	18
195	17
196	19
197	25
198	24
199	20
200	6
201	24
202	25
203	10
204	19
205	7
206	11
207	21
208	24
209	1
210	23
211	10
212	21
213	17
214	13
215	6
216	22
217	14
218	13
219	15
220	17
221	6
222	18
223	12
224	11
225	6
226	2
227	16
228	22
229	7
230	15
231	16
232	25
233	2
234	18
235	3
236	5
237	16
238	10
239	15
240	14
241	1
SERVICE_TIME_SECTION
1	0
2	1
3	12
4	20
5	5
6	10
7	12
8	19
9	8
10	18
11	25
12	23
13	3
14	21
15	5
16	1
17	15
18	9
19	19
20	13
21	24
22	7
23	8
24	12
25	13
26	25
27	23
28	20
29	8
30	5
31	19
32	24
33	4
34	13
35	15
36	15
37	21
38	21
39	24
40	18
41	13
42	4
43	11
44	4
45	25
46	13
47	17
48	14
49	15
50	19
51	10
52	23
53	19
54	25
55	21
56	5
57	4
58	22
59	9
60	19
61	11
62	14
63	12
64	11
65	3
66	17
67	2
68	1
69	5
70	11
71	7
72	19
73	22
74	2
75	10
76	20
77	8
78	21
79	20
80	18
81	23
82	8
83	15
84	24
85	16
86	24
87	11
88	19
89	21
90	6
91	6
92	23
93	10
94	16
95	23
96	25
97	19
98	8
99	2
100	6
101	20
102	5
103	13
104	3
105	18
106	9
107	17
108	18
109	11
110	9
111	5
112	16
113	19
114	9
115	5
116	11
117	15
118	24
119	19
120	6
121	10
122	20
123	23
124	22
125	5
126	21
127	7
128	14
129	22
130	15
131	7
132	10
133	12
134	8
135	11
136	2
137	7
138	12
139	24
140	15
141	11
142	2
143	17
144	18
145	11
146	17
147	15
148	8
149	4
150	9
151	18
152	10
153	2
154	22
155	2
156	17
157	23
158	21
159	14
160	9
161	22
162	18
163	17
164	5
165	25
166	22
167	1
168	11
169	14
170	9
171	5
172	18
173	4
174	8
175	6
176	25
177	3
178	9
179	5
180	16
181	3
182	6
183	23
184	2
185	24
186	18
187	7
188	24
189	21
190	2
191	7
192	23
193	24
194	3
195	16
196	13
197	25
198	14
199	17
200	11
201	1
202	22
203	11
204	6
205	18
206	19
207	10
208	17
209	17
210	7
211	22
212	4
213	4
214	9
215	12
216	5
217	15
218	22
219	5
220	17
221	24
222	15
223	4
224	5
225	1
226	2
227	1
228	8
229	16
230	7
231	7
232	17
233	13
234	8
235	25
236	22
237	12
238	23
239	7
240	20
241	12
TIME_WINDOW_SECTION
1	0	1000
2	215	393
3	231	342
4	228	325
5	404	534
6	410	544
7	246	374
8	183	295
9	213	330
10	426	571
11	165	287
12	198	365
13	466	642
14	100	253
15	318	485
16	105	206
17	332	436
18	442	589
19	198	369
20	63	201
21	156	287
22	458	585
23	475	634
24	93	202
25	88	227
26	246	360
27	348	485
28	411	559
29	350	522
30	234	328
31	297	472
32	437	598
33	178	355
34	386	477
35	165	323
36	281	422
37	81	214
38	183	362
39	131	244
40	66	219
41	266	389
42	239	415
43	362	484
44	470	643
45	264	439
46	78	252
47	200	377
48	267	416
49	193	322
50	63	175
51	236	390
52	121	294
53	282	372
54	332	446
55	128	232
56	440	594
57	345	436
58	100	224
59	145	253
60	449	606
61	460	615
62	268	398
63	148	246
64	139	278
65	338	468
66	106	249
67	186	326
68	70	244
69	323	491
70	169	293
71	211	352
72	282	451
73	228	318
74	138	255
75	150	263
76	408	565
77	232	347
78	378	537
79	352	472
80	160	327
81	456	564
82	83	207
83	302	472
84	181	319
85	68	181
86	414	553
87	218	347
88	323	450
89	117	228
90	442	586
91	78	216
92	393	497
93	437	612
94	175	281
95	276	419
96	427	572
97	270	386
98	181	272
99	123	227
100	75	189
101	104	257
102	307	406
103	78	218
104	443	542
105	99	276
106	456	570
107	145	318
108	438	600
109	134	264
110	467	562
111	314	453
112	183	309
113	227	372
114	362	455
115	119	268
116	197	309
117	62	158
118	120	252
119	233	373
120	88	209
121	140	299
122	241	363
123	237	340
124	143	242
125	361	523
126	157	323
127	114	274
128	337	465
129	235	364
130	368	461
131	433	572
132	143	251
133	291	432
134	327	429
135	375	548
136	372	476
137	88	228
138	477	569
139	333	491
140	355	453
141	362	489
142	445	545
143	256	406
144	106	238
145	83	204
146	133	289
147	460	622
148	332	460
149	185	345
150	336	492
151	290	467
152	293	391
153	96	242
154	357	493
155	84	189
156	229	350
157	100	190
158	207	343
159	149	281
160	373	545
161	284	399
162	213	387
163	106	218
164	332	497
165	279	422
166	171	345
167	274	441
168	99	220
169	195	337
170	115	223
171	71	218
172	166	264
173	260	408
174	197	358
175	137	250
176	328	484
177	392	531
178	97	234
179	209	349
180	118	291
181	149	261
182	475	615
183	296	440
184	444	596
185	301	424
186	178	312
187	129	240
188	133	233
189	150	310
190	106	266
191	235	413
192	409	544
193	261	418
194	312	445
195	440	552
196	72	233
197	93	214
198	408	539
199	417	511
200	288	421
201	209	325
202	333	508
203	184	357
204	85	248
205	220	323
206	242	369
207	128	253
208	199	323
209	469	638
210	324	494
211	140	292
212	140	241
213	293	457
214	164	312
215	369	540
216	258	410
217	438	529
218	143	249
219	254	387
220	385	489
221	381	548
222	269	424
223	436	537
224	109	209
225	215	327
226	213	387
227	423	519
228	259	366
229	389	564
230	138	243
231	396	548
232	129	297
233	128	263
234	207	380
235	448	584
236	120	275
237	425	548
238	467	630
239	189	336
240	118	214
241	261	396
CAPACITY_SECTION
1	100
2	100
3	100
4	100
5	100
6	100
7	150
8	150
9	150
10	150
11	150
12	150
13	200
14	200
15	200
16	200
17	200
18	200
19	250
20	250
21	250
22	250
23	250
24	250
VEHICLES_MAX_DURATION_SECTION
1	500
2	500
3	500
4	500
5	500
6	500
7	500
8	500
9	500
10	500
11	500
12	500
13	500
14	500
15	500
16	500
17	500
18	500
19	500
20	500
21	500
22	500
23	500
24	500
VEHICLES_ALLOWED_CLIENTS_SECTION
1	2	3	4	5	6	7	8	9	10	11	12	13	14	15	16	17	18	19	20	21	22	23	24	25	26	27	28	29	30	31	32	33	34	35	36	37	38	39	40	41	42	43	44	45	46	47	48	49	50	51	52	53	54	55	56	57	58	59	60	61	63	64	65	68	70	75	77	78	83	84	86	87	90	92	94	96	98	101	104	106	108	113	117	119	120	123	125	126	127	129	130	132	134	135	140	141	142	143	144	149	150	154	156	157	159	161	165	166	168	171	174	175	176	178	179	182	187	189	193	199	201	202	204	211	213	214	217	218	230	231	233	234	238	240
2	2	3	4	5	6	7	8	9	10	11	12	13	14	15	16	17	18	19	20	21	22	23	24	25	26	27	28	29	30	31	32	33	34	35	36	37	38	39	40	41	42	43	44	45	46	47	48	49	50	51	52	53	54	55	56	57	58	59	60	61	63	64	65	68	70	75	77	78	83	84	86	87	90	92	94	96	98	101	104	106	108	113	117	119	120	123	125	126	127	129	130	132	134	135	140	141	142	143	144	149	150	154	156	157	159	161	165	166	168	171	174	175	176	178	179	182	187	189	193	199	201	202	204	211	213	214	217	218	230	231	233	234	238	240
3	2	3	4	5	6	7	8	9	10	11	12	13	14	15	16	17	18	19	20	21	22	23	24	25	26	27	28	29	30	31	32	33	34	35	36	37	38	39	40	41	42	43	44	45	46	47	48	49	50	51	52	53	54	55	56	57	58	59	60	61	63	64	65	68	70	75	77	78	83	84	86	87	90	92	94	96	98	101	104	106	108	113	117	119	120	123	125	126	127	129	130	132	134	135	140	141	142	143	144	149	150	154	156	157	159	161	165	166	168	171	174	175	176	178	179	182	187	189	193	199	201	202	204	211	213	214	217	218	230	231	233	234	238	240
4	2	3	4	5	6	7	8	9	10	11	12	13	14	15	16	17	18	19	20	21	22	23	24	25	26	27	28	29	30	31	32	33	34	35	36	37	38	39	40	41	42	43	44	45	46	47	48	49	50	51	52	53	54	55	56	57	58	59	60	61	63	64	65	68	70	75	77	78	83	84	86	87	90	92	94	96	98	101	104	106	108	113	117	119	120	123	125	126	127	129	130	132	134	135	140	141	142	143	144	149	150	154	156	157	159	161	165	166	168	171	174	175	176	178	179	182	187	189	193	199	201	202	204	211	213	214	217	218	230	231	233	234	238	240
5	2	3	4	5	6	7	8	9	10	11	12	13	14	15	16	17	18	19	20	21	22	23	24	25	26	27	28	29	30	31	32	33	34	35	36	37	38	39	40	41	42	43	44	45	46	47	48	49	50	51	52	53	54	55	56	57	58	59	60	61	63	64	65	68	70	75	77	78	83	84	86	87	90	92	94	96	98	101	104	106	108	113	117	119	120	123	125	126	127	129	130	132	134	135	140	141	142	143	144	149	150	154	156	157	159	161	165	166	168	171	174	175	176	178	179	182	187	189	193	199	201	202	204	211	213	214	217	218	230	231	233	234	238	240
6	2	3	4	5	6	7	8	9	10	11	12	13	14	15	16	17	18	19	20	21	22	23	24	25	26	27	28	29	30	31	32	33	34	35	36	37	38	39	40	41	42	43	44	45	46	47	48	49	50	51	52	53	54	55	56	57	58	59	60	61	63	64	65	68	70	75	77	78	83	84	86	87	90	92	94	96	98	101	104	106	108	113	117	119	120	123	125	126	127	129	130	132	134	135	140	141	142	143	144	149	150	154	156	157	159	161	165	166	168	171	174	175	176	178	179	182	187	189	193	199	201	202	204	211	213	214	217	218	230	231	233	234	238	240
7	2	3	4	5	6	7	8	9	10	11	12	13	14	15	16	17	18	19	20	21	22	23	24	25	26	27	28	29	30	31	32	33	34	35	36	37	38	39	40	41	42	43	44	45	46	47	48	49	50	51	52	53	54	55	56	57	58	59	60	61	65	67	69	70	71	74	75	76	80	83	84	85	87	88	89	90	91	93	94	95	96	97	99	102	104	106	107	108	109	110	111	116	120	122	123	124	125	126	128	129	131	134	140	145	147	150	151	152	153	154	155	156	157	158	159	160	164	165	168	170	171	172	173	174	175	176	178	180	190	191	196	197	198	200	205	207	210	212	221	222	224	225	226	227	228	239	241
8	2	3	4	5	6	7	8	9	10	11	12	13	14	15	16	17	18	19	20	21	22	23	24	25	26	27	28	29	30	31	32	33	34	35	36	37	38	39	40	41	42	43	44	45	46	47	48	49	50	51	52	53	54	55	56	57	58	59	60	61	65	67	69	70	71	74	75	76	80	83	84	85	87	88	89	90	91	93	94	95	96	97	99	102	104	106	107	108	109	110	111	116	120	122	123	124	125	126	128	129	131	134	140	145	147	150	151	152	153	154	155	156	157	158	159	160	164	165	168	170	171	172	173	174	175	176	178	180	190	191	196	197	198	200	205	207	210	212	221	222	224	225	226	227	228	239	241
9	2	3	4	5	6	7	8	9	10	11	12	13	14	15	16	17	18	19	20	21	22	23	24	25	26	27	28	29	30	31	32	33	34	35	36	37	38	39	40	41	42	43	44	45	46	47	48	49	50	51	52	53	54	55	56	57	58	59	60	61	65	67	69	70	71	74	75	76	80	83	84	85	87	88	89	90	91	93	94	95	96	97	99	102	104	106	107	108	109	110	111	116	120	122	123	124	125	126	128	129	131	134	140	145	147	150	151	152	153	154	155	156	157	158	159	160	164	165	168	170	171	172	173	174	175	176	178	180	190	191	196	197	198	200	205	207	210	212	221	222	224	225	226	227	228	239	241
10	2	3	4	5	6	7	8	9	10	11	12	13	14	15	16	17	18	19	20	21	22	23	24	25	26	27	28	29	30	31	32	33	34	35	36	37	38	39	40	41	42	43	44	45	46	47	48	49	50	51	52	53	54	55	56	57	58	59	60	61	65	67	69	70	71	74	75	76	80	83	84	85	87	88	89	90	91	93	94	95	96	97	99	102	104	106	107	108	109	110	111	116	120	122	123	124	125	126	128	129	131	134	140	145	147	150	151	152	153	154	155	156	157	158	159	160	164	165	168	170	171	172	173	174	175	176	178	180	190	191	196	197	198	200	205	207	210	212	221	222	224	225	226	227	228	239	241
11	2	3	4	5	6	7	8	9	10	11	12	13	14	15	16	17	18	19	20	21	22	23	24	25	26	27	28	29	30	31	32	33	34	35	36	37	38	39	40	41	42	43	44	45	46	47	48	49	50	51	52	53	54	55	56	57	58	59	60	61	65	67	69	70	71	74	75	76	80	83	84	85	87	88	89	90	91	93	94	95	96	97	99	102	104	106	107	108	109	110	111	116	120	122	123	124	125	126	128	129	131	134	140	145	147	150	151	152	153	154	155	156	157	158	159	160	164	165	168	170	171	172	173	174	175	176	178	180	190	191	196	197	198	200	205	207	210	212	221	222	224	225	226	227	228	239	241
12	2	3	4	5	6	7	8	9	10	11	12	13	14	15	16	17	18	19	20	21	22	23	24	25	26	27	28	29	30	31	32	33	34	35	36	37	38	39	40	41	42	43	44	45	46	47	48	49	50	51	52	53	54	55	56	57	58	59	60	61	65	67	69	70	71	74	75	76	80	83	84	85	87	88	89	90	91	93	94	95	96	97	99	102	104	106	107	108	109	110	111	116	120	122	123	124	125	126	128	129	131	134	140	145	147	150	151	152	153	154	155	156	157	158	159	160	164	165	168	170	171	172	173	174	175	176	178	180	190	191	196	197	198	200	205	207	210	212	221	222	224	225	226	227	228	239	241
13	2	3	4	5	6	7	8	9	10	11	12	13	14	15	16	17	18	19	20	21	22	23	24	25	26	27	28	29	30	31	32	33	34	35	36	37	38	39	40	41	42	43	44	45	46	47	48	49	50	51	52	53	54	55	56	57	58	59	60	61	62	66	67	69	71	72	73	74	76	79	80	81	82	85	88	89	91	93	95	97	99	100	102	103	105	107	109	110	111	112	114	115	116	118	121	122	124	128	131	133	136	137	138	139	145	146	147	148	151	152	153	155	158	160	162	163	164	167	169	170	172	173	177	180	181	195	203	206	208	215	219	223	232	236	237
14	2	3	4	5	6	7	8	9	10	11	12	13	14	15	16	17	18	19	20	21	22	23	24	25	26	27	28	29	30	31	32	33	34	35	36	37	38	39	40	41	42	43	44	45	46	47	48	49	50	51	52	53	54	55	56	57	58	59	60	61	62	66	67	69	71	72	73	74	76	79	80	81	82	85	88	89	91	93	95	97	99	100	102	103	105	107	109	110	111	112	114	115	116	118	121	122	124	128	131	133	136	137	138	139	145	146	147	148	151	152	153	155	158	160	162	163	164	167	169	170	172	173	177	180	181	195	203	206	208	215	219	223	232	236	237
15	2	3	4	5	6	7	8	9	10	11	12	13	14	15	16	17	18	19	20	21	22	23	24	25	26	27	28	29	30	31	32	33	34	35	36	37	38	39	40	41	42	43	44	45	46	47	48	49	50	51	52	53	54	55	56	57	58	59	60	61	62	66	67	69	71	72	73	74	76	79	80	81	82	85	88	89	91	93	95	97	99	100	102	103	105	107	109	110	111	112	114	115	116	118	121	122	124	128	131	133	136	137	138	139	145	146	147	148	151	152	153	155	158	160	162	163	164	167	169	170	172	173	177	180	181	195	203	206	208	215	219	223	232	236	237
16	2	3	4	5	6	7	8	9	10	11	12	13	14	15	16	17	18	19	20	21	22	23	24	25	26	27	28	29	30	31	32	33	34	35	36	37	38	39	40	41	42	43	44	45	46	47	48	49	50	51	52	53	54	55	56	57	58	59	60	61	62	66	67	69	71	72	73	74	76	79	80	81	82	85	88	89	91	93	95	97	99	100	102	103	105	107	109	110	111	112	114	115	116	118	121	122	124	128	131	133	136	137	138	139	145	146	147	148	151	152	153	155	158	160	162	163	164	167	169	170	172	173	177	180	181	195	203	206	208	215	219	223	232	236	237
17	2	3	4	5	6	7	8	9	10	11	12	13	14	15	16	17	18	19	20	21	22	23	24	25	26	27	28	29	30	31	32	33	34	35	36	37	38	39	40	41	42	43	44	45	46	47	48	49	50	51	52	53	54	55	56	57	58	59	60	61	62	66	67	69	71	72	73	74	76	79	80	81	82	85	88	89	91	93	95	97	99	100	102	103	105	107	109	110	111	112	114	115	116	118	121	122	124	128	131	133	136	137	138	139	145	146	147	148	151	152	153	155	158	160	162	163	164	167	169	170	172	173	177	180	181	195	203	206	208	215	219	223	232	236	237
18	2	3	4	5	6	7	8	9	10	11	12	13	14	15	16	17	18	19	20	21	22	23	24	25	26	27	28	29	30	31	32	33	34	35	36	37	38	39	40	41	42	43	44	45	46	47	48	49	50	51	52	53	54	55	56	57	58	59	60	61	62	66	67	69	71	72	73	74	76	79	80	81	82	85	88	89	91	93	95	97	99	100	102	103	105	107	109	110	111	112	114	115	116	118	121	122	124	128	131	133	136	137	138	139	145	146	147	148	151	152	153	155	158	160	162	163	164	167	169	170	172	173	177	180	181	195	203	206	208	215	219	223	232	236	237
19	2	3	4	5	6	7	8	9	10	11	12	13	14	15	16	17	18	19	20	21	22	23	24	25	26	27	28	29	30	31	32	33	34	35	36	37	38	39	40	41	42	43	44	45	46	47	48	49	50	51	52	53	54	55	56	57	58	59	60	61	62	63	64	66	68	72	73	77	78	79	81	82	86	92	98	100	101	103	105	112	113	114	115	117	118	119	121	127	130	132	133	135	136	137	138	139	141	142	143	144	146	148	149	161	162	163	166	167	169	177	179	181	183	184	185	186	188	192	194	209	216	220	229	235
20	2	3	4	5	6	7	8	9	10	11	12	13	14	15	16	17	18	19	20	21	22	23	24	25	26	27	28	29	30	31	32	33	34	35	36	37	38	39	40	41	42	43	44	45	46	47	48	49	50	51	52	53	54	55	56	57	58	59	60	61	62	63	64	66	68	72	73	77	78	79	81	82	86	92	98	100	101	103	105	112	113	114	115	117	118	119	121	127	130	132	133	135	136	137	138	139	141	142	143	144	146	148	149	161	162	163	166	167	169	177	179	181	183	184	185	186	188	192	194	209	216	220	229	235
21	2	3	4	5	6	7	8	9	10	11	12	13	14	15	16	17	18	19	20	21	22	23	24	25	26	27	28	29	30	31	32	33	34	35	36	37	38	39	40	41	42	43	44	45	46	47	48	49	50	51	52	53	54	55	56	57	58	59	60	61	62	63	64	66	68	72	73	77	78	79	81	82	86	92	98	100	101	103	105	112	113	114	115	117	118	119	121	127	130	132	133	135	136	137	138	139	141	142	143	144	146	148	149	161	162	163	166	167	169	177	179	181	183	184	185	186	188	192	194	209	216	220	229	235
22	2	3	4	5	6	7	8	9	10	11	12	13	14	15	16	17	18	19	20	21	22	23	24	25	26	27	28	29	30	31	32	33	34	35	36	37	38	39	40	41	42	43	44	45	46	47	48	49	50	51	52	53	54	55	56	57	58	59	60	61	62	63	64	66	68	72	73	77	78	79	81	82	86	92	98	100	101	103	105	112	113	114	115	117	118	119	121	127	130	132	133	135	136	137	138	139	141	142	143	144	146	148	149	161	162	163	166	167	169	177	179	181	183	184	185	186	188	192	194	209	216	220	229	235
23	2	3	4	5	6	7	8	9	10	11	12	13	14	15	16	17	18	19	20	21	22	23	24	25	26	27	28	29	30	31	32	33	34	35	36	37	38	39	40	41	42	43	44	45	46	47	48	49	50	51	52	53	54	55	56	57	58	59	60	61	62	63	64	66	68	72	73	77	78	79	81	82	86	92	98	100	101	103	105	112	113	114	115	117	118	119	121	127	130	132	133	135	136	137	138	139	141	142	143	144	146	148	149	161	162	163	166	167	169	177	179	181	183	184	185	186	188	192	194	209	216	220	229	235
24	2	3	4	5	6	7	8	9	10	11	12	13	14	15	16	17	18	19	20	21	22	23	24	25	26	27	28	29	30	31	32	33	34	35	36	37	38	39	40	41	42	43	44	45	46	47	48	49	50	51	52	53	54	55	56	57	58	59	60	61	62	63	64	66	68	72	73	77	78	79	81	82	86	92	98	100	101	103	105	112	113	114	115	117	118	119	121	127	130	132	133	135	136	137	138	139	141	142	143	144	146	148	149	161	162	163	166	167	169	177	179	181	183	184	185	186	188	192	194	209	216	220	229	235
EOF
