SDVRPTW/PR05.sol
Route #1: 74 186 229 164 192 42 230
Route #2: 156 170 239 177 232 97 188 86 28
Route #3: 200 203 69 93 129 140 5
Route #4: 10 233 118 82 212 40 216
Route #5: 62 217 178 210 3 181 55 43
Route #6: 8 142 213 201 160 237 198
Route #7: 223 39 18 171 173 238 83 122 221 153 209
Route #8: 45 196 227 224 225 133 26 190 139 64 105
Route #9: 58 211 195 189 206 175 159 226 103 124 59
Route #10: 108 155 50 125 79 14 121 149 22 95 107
Route #11: 167 154 98 204 30 101 41 199 197 130 146
Route #12: 119 158 84 174 128 37 240 35 110 96 89 220
Route #13: 90 152 120 81 66 19 207 73 205 132 202 52 147 1 53 56
Route #14: 24 104 179 36 48 214 71 194 222
Route #15: 34 72 94 70 218 172 127 80 92
Route #16: 144 38 54 231 115 145 163 87 4 12 9 236
Route #17: 23 106 235 150 151 16 113 68 109
Route #18: 169 123 88 157 46 32 168 47 75
Route #19: 116 67 126 131 65 161 138 184 219 60
Route #20: 15 180 136 63 44 182 165 85 234 77
Route #21: 187 143 7 13 51 185 193 78 17 21 134
Route #22: 57 162 99 11 112 29 76 141 31 27
Route #23: 61 2 6 25 228 176 91 183 208
Route #24: 102 49 117 20 114 100 215 166 111 148 33 135 137 191
Cost: 5644196
